0, 1129, 572, 1157, 135, 738, 446, 1176, 569, 974
936, 0, 736, 367, 950, 488, 888, 496, 856, 585
544, 725, 0, 615, 549, 602, 313, 634, 738, 725
978, 342, 591, 0, 1092, 557, 743, 231, 898, 586
189, 994, 506, 939, 0, 603, 380, 1007, 568, 909
671, 563, 634, 523, 685, 0, 782, 591, 591, 874
416, 862, 299, 753, 422, 789, 0, 772, 753, 593
1038, 468, 632, 236, 1133, 617, 784, 0, 958, 568
527, 1001, 829, 945, 495, 609, 848, 1013, 0, 1047
773, 575, 709, 530, 776, 811, 548, 538, 1111, 0
